
  22    4
  10   10   10   10

   0   0   0   0   0   8 2 3 4 6 7 8 10 11 
   9  10  10  10  10   5 21 13 12 9 5 
   7  10  10  10  10   6 19 18 17 14 13 12 
   2  10  10  10  10   5 19 17 14 13 12 
   2  10  10  10  10   5 19 18 17 16 15 
   7  10  10  10  10   4 20 18 15 13 
   6  10  10  10  10   3 21 17 12 
  10  10  10  10  10   4 20 19 16 15 
   2  10  10  10  10   3 18 17 15 
   3  10  10  10  10   3 17 16 15 
   3  10  10  10  10   1 12 
   6  10  10  10  10   2 16 15 
  10  10  10  10  10   1 16 
   2  10  10  10  10   1 15 
   9  10  10  10  10   1 22
   8  10  10  10  10   1 22
   8  10  10  10  10   1 22
  10  10  10  10  10   1 22
   8  10  10  10  10   1 22
   7  10  10  10  10   1 22
   3  10  10  10  10   1 22
   0   0   0   0   0   0 
